249 1000
1 489 3 5 8 11 12 18 19 21 24 31 33 36 37 38 43 44 50 51 63 66 68 69 73 75 76 77 83 86 87 90 92 96 97 98 99 101 104 106 115 117 118 122 124 125 127 129 130 133 134 142 143 144 145 153 156 159 160 163 164 166 167 169 180 185 188 189 190 193 194 198 199 202 206 209 211 212 217 221 224 226 228 238 239 242 248
2 253
3 258 5 8 11 12 18 19 21 24 31 33 36 37 38 43 44 50 51 63 66 68 69 73 75 76 77 83 86 87 90 92 96 97 98 99 101 104 106 115 117 118 124 125 127 129 130 133 134 142 143 153 156 160 163 164 166 169 180 185 188 189 190 193 194 198 202 206 209 211 212 217 224 228 238 239 242 248
4 489
5 252 8 11 19 37 44 51 63 77 86 87 90 96 97 104 125 127 130 133 156 160 164 169 185 188 194 198 211
6 259
7 384
8 295 11 12 18 19 21 24 33 36 37 38 43 44 51 63 66 69 73 75 76 77 83 86 87 90 92 96 97 98 99 101 104 106 115 117 118 124 125 127 129 130 133 134 142 143 153 156 160 163 164 166 169 180 185 188 189 190 193 194 198 202 206 211 212 217 224 228 238 239 242 248
9 321
10 425 19 51 63 96 133 188 198
11 278 12 18 19 21 24 31 33 36 37 38 43 44 50 51 63 66 68 69 73 75 76 77 83 86 87 90 92 96 97 98 99 101 104 106 107 115 117 118 122 124 125 127 129 130 133 134 142 143 144 145 153 156 159 160 163 164 166 167 169 180 182 185 188 189 190 191 193 194 198 199 202 206 209 211 212 217 221 224 226 228 238 239 242 248
12 297 19 37 44 51 63 77 86 87 90 96 97 104 106 125 127 130 133 156 160 164 169 185 188 194 198 211
13 386
14 299
15 315
16 403
17 297
18 300 19 21 24 37 38 43 44 51 63 77 86 87 90 96 97 104 106 115 125 127 129 130 133 143 156 160 164 169 180 185 188 189 194 198 206 211 212 217 238
19 487 21 23 24 31 33 36 37 38 43 44 46 50 51 63 66 68 69 73 75 76 77 83 86 87 90 92 96 97 98 99 101 104 106 107 115 117 118 122 124 125 127 129 130 133 134 142 143 144 145 153 156 159 160 163 164 166 167 169 180 182 185 186 188 189 190 191 193 194 198 199 202 206 209 211 212 217 221 224 226 228 235 238 239 242 245 248
20 250
21 263 24 33 37 38 43 44 51 63 75 77 86 87 90 92 96 97 98 101 104 106 115 125 127 129 130 133 143 153 156 160 164 169 180 185 188 189 190 193 194 198 206 211 212 217 238 248
22 431
23 260 96 133 188
24 309 37 38 43 44 51 63 75 77 86 87 90 92 96 97 98 104 106 115 125 127 129 130 133 143 153 156 160 164 169 180 185 188 189 190 194 198 206 211 212 217 238 248
25 405
26 288
27 307
28 407
29 255
30 338
31 404 37 44 51 63 77 86 96 97 125 127 130 133 160 169 188 198 211
32 283
33 313 37 38 43 44 51 63 77 86 87 90 96 97 104 106 125 127 129 130 133 156 160 164 169 180 185 188 194 198 211 217 238
34 374
35 297
36 329 37 44 51 63 77 86 87 90 96 97 104 106 125 127 130 133 156 160 164 169 180 185 188 194 198 211 217
37 422 38 43 44 50 51 63 66 68 69 73 75 76 77 83 86 87 90 92 96 97 98 99 101 104 106 107 115 117 118 122 124 125 127 129 130 133 134 142 143 144 145 153 156 159 160 163 164 166 167 169 180 182 185 188 189 190 193 194 198 199 202 206 209 211 212 217 221 224 226 228 238 239 242 248
38 279 43 44 51 63 75 77 86 87 90 92 96 97 98 104 106 115 125 127 129 130 133 143 153 156 160 164 169 180 185 188 189 190 194 198 206 211 212 217 238 248
39 299
40 453
41 268
42 279
43 400 44 51 63 75 77 86 87 90 92 96 97 98 99 101 104 106 115 118 124 125 127 129 130 133 143 153 156 160 163 164 169 180 185 188 189 190 193 194 198 206 211 212 217 238 242 248
44 293 50 51 63 66 68 69 73 75 76 77 83 86 87 90 92 96 97 98 99 101 104 106 107 115 117 118 122 124 125 127 129 130 133 134 142 143 144 145 153 156 159 160 163 164 166 167 169 180 182 185 188 189 190 191 193 194 198 199 202 206 209 211 212 217 221 224 226 228 238 239 242 248
45 307
46 412 51 63 96 133 188 198
47 274
48 314
49 447
50 260 51 63 77 86 96 97 125 127 130 133 156 160 169 185 188 198 211
51 293 63 66 68 69 73 75 76 77 83 86 87 90 92 96 97 98 99 101 104 106 107 115 117 118 122 124 125 127 129 130 133 134 142 143 144 145 153 156 159 160 163 164 166 167 169 180 182 185 186 188 189 190 191 193 194 198 199 202 206 209 211 212 217 221 224 226 228 235 238 239 242 248
52 380
53 305
54 315
55 411
56 270
57 319
58 444
59 273
60 283
61 365
62 250
63 385 66 68 69 73 75 76 77 83 86 87 90 92 96 97 98 99 101 104 106 107 115 117 118 122 124 125 127 129 130 133 134 142 143 144 145 153 156 159 160 163 164 166 167 169 180 182 185 186 188 189 190 191 193 194 198 199 202 206 209 211 212 217 221 224 226 228 235 238 239 242 248
64 433
65 270
66 297 77 86 87 90 96 97 104 106 125 127 130 133 156 160 164 169 180 185 188 194 198 211 217
67 471 96 188
68 262 77 86 87 96 97 125 127 130 133 156 160 169 185 188 198 211
69 267 77 86 87 90 96 97 104 125 127 130 133 156 160 164 169 185 188 194 198 211
70 438
71 252
72 310
73 463 77 86 87 90 96 97 104 106 125 127 130 133 156 160 164 169 180 185 188 194 198 211
74 263
75 274 77 86 87 90 92 96 97 104 106 115 125 127 129 130 133 143 153 156 160 164 169 180 185 188 189 194 198 206 211 212 217 238
76 350 77 86 87 96 97 125 127 130 133 156 160 169 185 188 198 211
77 251 83 86 87 90 92 96 97 98 99 101 104 106 115 117 118 124 125 127 129 130 133 134 142 143 153 156 160 163 164 166 169 180 185 188 189 190 193 194 198 202 206 209 211 212 217 224 228 238 239 242 248
78 399
79 388
80 260
81 352
82 379
83 255 86 87 90 96 97 104 106 125 127 130 133 156 160 164 169 180 185 188 194 198 211 217
84 366
85 394
86 286 87 90 92 96 97 98 99 101 104 106 115 117 118 124 125 127 129 130 133 134 142 143 144 145 153 156 160 163 164 166 167 169 180 185 188 189 190 193 194 198 199 202 206 209 211 212 217 221 224 226 228 238 239 242 248
87 320 90 92 96 97 98 99 101 104 106 115 117 118 124 125 127 129 130 133 134 142 143 153 156 160 163 164 166 169 180 185 188 189 190 193 194 198 202 206 211 212 217 224 228 238 239 242 248
88 489
89 252
90 259 92 96 97 98 99 101 104 106 115 117 118 124 125 127 129 130 133 134 142 143 153 156 160 163 164 166 169 180 185 188 189 190 193 194 198 202 206 211 212 217 224 228 238 239 242 248
91 488
92 253 96 97 104 106 115 125 127 129 130 133 143 153 156 160 164 169 180 185 188 189 194 198 206 211 212 217 238
93 259
94 498
95 250
96 252 97 98 99 101 104 106 107 115 117 118 122 124 125 127 129 130 133 134 142 143 144 145 153 156 159 160 163 164 166 167 169 180 182 185 186 188 189 190 191 193 194 198 199 202 206 209 211 212 217 221 224 226 228 235 238 239 242 245 248
97 435 98 99 101 104 106 115 117 118 124 125 127 129 130 133 134 142 143 144 145 153 156 160 163 164 166 167 169 180 185 188 189 190 193 194 198 199 202 206 209 211 212 217 221 224 228 238 239 242 248
98 261 104 106 115 125 127 129 130 133 156 160 164 169 180 185 188 189 194 198 206 211 212 217 238
99 304 104 106 125 127 129 130 133 156 160 164 169 180 185 188 194 198 211 217 238
100 420
101 254 104 106 125 127 129 130 133 156 160 164 169 180 185 188 194 198 211 217 238
102 326
103 478
104 252 106 115 117 118 124 125 127 129 130 133 134 142 143 153 156 160 163 164 166 169 180 185 188 189 190 193 194 198 202 206 211 212 217 224 228 238 239 242 248
105 270
106 491 115 117 118 124 125 127 129 130 133 134 143 153 156 160 163 164 166 169 180 185 188 189 190 193 194 198 202 206 211 212 217 228 238 239 242 248
107 252 133 188 198
108 257
109 382
110 290
111 328
112 438
113 271
114 291
115 425 125 127 129 130 133 143 153 156 160 164 169 180 185 188 189 190 194 198 206 211 212 217 238 248
116 252
117 323 125 127 129 130 133 156 160 164 169 180 185 188 194 198 211 217 238
118 499 125 127 129 130 133 156 160 164 169 180 185 188 194 198 211 217 238
119 250
120 251
121 419
122 282 133 188 198
123 299
124 361 125 127 129 130 133 156 160 164 169 180 185 188 194 198 211 217 238
125 289 127 129 130 133 134 142 143 144 153 156 160 163 164 166 169 180 185 188 189 190 193 194 198 202 206 209 211 212 217 221 224 228 238 239 242 248
126 350
127 414 129 130 133 134 142 143 144 153 156 160 163 164 166 169 180 185 188 189 190 193 194 198 202 206 209 211 212 217 224 228 238 239 242 248
128 276
129 310 130 133 143 153 156 160 163 164 166 169 180 185 188 189 190 193 194 198 202 206 211 212 217 228 238 242 248
130 403 133 134 142 143 144 145 153 156 159 160 163 164 166 167 169 180 185 188 189 190 193 194 198 199 202 206 209 211 212 217 221 224 226 228 238 239 242 248
131 254
132 343
133 472 134 142 143 144 145 153 156 159 160 163 164 166 167 169 180 182 185 186 188 189 190 191 193 194 198 199 202 206 209 211 212 217 221 224 226 228 235 238 239 242 248
134 263 156 160 164 169 180 185 188 194 198 211
135 265
136 484
137 251
138 265
139 363
140 304
141 333
142 433 156 160 164 169 185 188 194 198 211
143 273 153 156 160 164 169 180 185 188 189 190 194 198 206 211 212 217 238
144 294 169 188 198
145 358 169 188 198
146 312
147 330
148 353
149 312
150 335
151 480
152 252
153 268 156 160 164 169 180 185 188 189 194 198 206 211 212 217 238
154 394
155 276
156 330 160 163 164 166 169 180 185 188 189 190 193 194 198 202 206 209 211 212 217 224 228 238 239 242 248
157 467
158 260
159 273 188 198
160 479 163 164 166 169 180 185 188 189 190 193 194 198 202 206 209 211 212 217 224 228 238 239 242 248
161 252
162 269
163 377 164 169 180 185 188 194 198 211 217 238
164 263 166 169 180 185 188 189 190 193 194 198 202 206 211 212 217 224 228 238 239 242 248
165 360
166 493 169 180 185 188 194 198 211 217 238
167 253 169 188 198
168 254
169 450 180 185 188 189 190 193 194 198 199 202 206 209 211 212 217 221 224 228 238 239 242 248
170 250
171 300
172 379
173 285
174 336
175 376
176 279
177 345
178 371
179 294
180 335 185 188 189 190 193 194 198 202 206 211 212 217 228 238 239 242 248
181 381
182 307 188 198
183 312
184 389
185 258 188 189 190 193 194 198 202 206 211 212 217 224 228 238 239 242 248
186 353 188 198
187 381
188 285 189 190 191 193 194 198 199 202 206 209 211 212 217 221 224 226 228 235 238 239 242 245 248
189 334 190 194 198 206 211 212 217 238 248
190 445 194 198 206 211 212 217 238
191 255 198
192 300
193 370 194 198 211 217 238
194 301 198 202 206 211 212 217 224 228 238 239 242 248
195 329
196 365
197 273
198 362 199 202 206 209 211 212 217 221 224 226 228 235 238 239 242 248
199 378
200 276
201 346
202 466 211 217 238
203 258
204 276
205 367
206 281 211 212 217 238 248
207 352
208 463
209 257 211
210 280
211 376 212 217 224 228 238 239 242 248
212 261 217 238
213 363
214 404
215 279
216 317
217 443 228 238 242 248
218 268
219 289
220 440
221 259
222 301
223 463
224 262
225 275
226 356
227 320
228 324 238
229 418
230 287
231 295
232 425
233 267
234 308
235 374
236 283
237 343
238 413 242 248
239 274
240 313
241 384
242 259
243 357
244 382
245 276
246 342
247 461
248 264
249 275
